; benchmark generated from python API
(set-info :status unknown)
(declare-fun S_1 () Real)
(declare-fun S_2 () Real)
(declare-fun A_1 () Real)
(declare-fun L_1 () Real)
(declare-fun B () Real)
(declare-fun S_3 () Real)
(declare-fun S_4 () Real)
(declare-fun S_0 () Real)
(declare-fun A_3 () Real)
(declare-fun L_3 () Real)
(declare-fun A_0 () Real)
(declare-fun L_4 () Real)
(declare-fun A_4 () Real)
(declare-fun L_0 () Real)
(declare-fun L_2 () Real)
(declare-fun A_2 () Real)
(assert
 (let (($x9038 (<= (+ (* (- 1.0) S_2) (* (- 1.0) B) (* (- 1.0) L_1) A_1) 0.0)))
 (let (($x1765 (<= (+ (* (- 1.0) S_4) (* (- 1.0) L_3) (* (- 1.0) B) A_3) 0.0)))
 (let (($x1385 (<= (+ A_0 (* (- 1.0) S_1) (* (- 1.0) B) (* (- 1.0) L_1)) 0.0)))
 (let (($x1371 (<= (+ (* (- 1.0) S_3) (* (- 1.0) B) (* (- 1.0) L_2) A_2) 0.0)))
 (let (($x958 (not (<= B 0.0))))
 (let ((?x15147 (* (- (/ 1.0 2.0)) L_0)))
 (let ((?x15149 (* (- (/ 1.0 2.0)) S_3)))
 (let ((?x15162 (* (/ 1.0 2.0) A_0)))
 (let ((?x767 (* (- 1.0) A_3)))
 (let (($x2497 (<= (+ L_3 ?x767 S_4 (* (- 1.0) L_1) A_1 (* (- 1.0) S_3)) 0.0)))
 (let (($x1736 (<= (+ A_2 (* (- 1.0) L_2) (* (- 1.0) S_3)) 0.0)))
 (let (($x2428 (<= (+ (* (/ 1.0 2.0) L_1) (* (- (/ 1.0 2.0)) A_1) (* (- (/ 1.0 2.0)) S_4) S_2) 0.0)))
 (let (($x2071 (<= (+ (* (- 1.0) L_3) A_3 (* (- 1.0) S_4)) 0.0)))
 (let ((?x1423 (* (- 2.0) A_1)))
 (let ((?x1422 (* 2.0 L_1)))
 (let ((?x1335 (* 2.0 B)))
 (let ((?x4668 (* (- 2.0) L_0)))
 (let ((?x4667 (* 2.0 A_0)))
 (let ((?x758 (* (- 1.0) A_2)))
 (let (($x1390 (<= (+ (* (- 1.0) A_0) S_0 B L_1) 0.0)))
 (let ((?x737 (* (- 1.0) L_0)))
 (let ((?x746 (* (- 1.0) L_1)))
 (let (($x606 (= ?x746 ?x737)))
 (let (($x122337 (or $x606 $x1390 (<= (+ ?x758 L_2 S_4 ?x4667 ?x4668 ?x1335 ?x1422 ?x1423) 0.0))))
 (let ((?x1358 (* (- 3.0) B)))
 (let ((?x803 (* (- 1.0) A_4)))
 (let ((?x4286 (* 3.0 L_0)))
 (let ((?x4287 (* (- 3.0) A_0)))
 (let (($x14788 (<= (+ ?x4287 ?x4286 ?x803 ?x1358 L_4 (* (- 4.0) L_1) (* 4.0 A_1)) 0.0)))
 (let ((?x1400 (* 2.0 A_1)))
 (let ((?x1415 (* (- 2.0) L_1)))
 (let ((?x1431 (* (- 2.0) B)))
 (let ((?x979 (* (- 1.0) A_0)))
 (let (($x9091 (<= (+ ?x979 L_0 ?x1431 ?x1415 L_2 ?x1400 ?x758) 0.0)))
 (let (($x6983 (<= (+ (* (- 2.0) L_3) (* 2.0 A_3) ?x758 L_2 ?x803 B L_4) 0.0)))
 (let ((?x764 (* (- 1.0) L_3)))
 (let ((?x735 (* (- 1.0) L_4)))
 (let (($x644 (= ?x735 ?x764)))
 (let ((?x1386 (* 2.0 S_1)))
 (let ((?x4651 (* 2.0 L_0)))
 (let ((?x4652 (* (- 2.0) A_0)))
 (let ((?x755 (* (- 1.0) L_2)))
 (let (($x125159 (or $x644 (<= (+ A_2 ?x755 ?x4652 ?x4651 ?x1386 ?x803 B L_4) 0.0) (<= (+ ?x4287 ?x4286 (* 4.0 S_1) ?x803 B L_4) 0.0) (<= (+ ?x764 A_3 ?x979 L_0 S_1 ?x803 B L_4) 0.0))))
 (let (($x56557 (or $x644 (<= (+ ?x746 A_1 ?x803 B L_4) (- 15.0)) (<= (+ ?x764 A_3 ?x803 B L_4) (- 5.0)) (<= (+ A_2 ?x755 ?x803 B L_4) (- 10.0)) (<= (+ A_0 ?x737 ?x803 B L_4) (- 20.0)))))
 (let ((?x6975 (* 3.0 L_4)))
 (let ((?x1373 (* 3.0 B)))
 (let ((?x6939 (* (- 3.0) A_4)))
 (let (($x1729 (<= (+ S_3 L_3 B ?x767) 0.0)))
 (let (($x698 (= ?x735 ?x755)))
 (let (($x58715 (or $x698 $x1729 (<= (+ ?x979 L_0 (* 4.0 S_3) ?x6939 ?x1373 ?x6975) 0.0))))
 (let (($x17341 (<= (+ ?x764 A_3 ?x979 L_0 ?x803 L_4 ?x746 A_1) 0.0)))
 (let (($x13284 (<= (+ A_2 ?x755 ?x4652 ?x4651 ?x803 (* (- 1.0) B) L_4 ?x1415 ?x1400) 0.0)))
 (let (($x13109 (<= (+ A_2 ?x755 ?x979 L_0 (* (- 1.0) B) ?x746 L_3 A_1 ?x767) 0.0)))
 (let (($x6931 (<= (+ (* (- 4.0) L_3) (* 4.0 A_3) ?x6939 ?x1373 ?x6975 L_0 ?x979) 0.0)))
 (let ((?x1428 (* (- 2.0) A_3)))
 (let ((?x1427 (* 2.0 L_3)))
 (let ((?x777 (* (- 1.0) B)))
 (let (($x124218 (or $x698 (<= (+ A_2 ?x755 A_4 ?x777 ?x735 ?x1427 ?x1428) 0.0) $x14788 $x17341)))
 (let ((?x1576 (* 2.0 L_4)))
 (let ((?x4246 (* (- 2.0) A_4)))
 (let ((?x1403 (* 2.0 A_3)))
 (let ((?x1407 (* (- 2.0) L_3)))
 (let (($x14726 (<= (+ ?x979 L_0 (* 2.0 S_2) ?x803 B L_4) 0.0)))
 (let (($x126466 (or $x644 $x14726 (<= (+ ?x1407 ?x1403 ?x979 L_0 S_2 ?x4246 ?x1335 ?x1576) 0.0))))
 (let (($x7257 (<= (+ ?x764 A_3 L_1 (* (- 1.0) A_1) S_2 ?x803 B L_4) 0.0)))
 (let (($x124135 (or $x644 (<= (+ ?x1422 ?x1423 (* 3.0 S_2) ?x803 B L_4) 0.0) $x7257)))
 (let (($x9052 (<= (+ L_3 ?x767 S_4 A_0 ?x737 B L_1 (* (- 1.0) A_1)) 0.0)))
 (let ((?x6993 (* 3.0 A_4)))
 (let ((?x6992 (* (- 4.0) A_3)))
 (let ((?x6995 (* (- 3.0) L_4)))
 (let ((?x6994 (* 4.0 L_3)))
 (let ((?x4293 (* (- 3.0) A_3)))
 (let ((?x4292 (* 3.0 L_3)))
 (let ((?x1399 (* (- 2.0) L_4)))
 (let ((?x2236 (* 2.0 A_4)))
 (let (($x654 (= ?x764 ?x755)))
 (let (($x124058 (or $x654 (<= (+ A_2 ?x755 ?x1427 ?x735 B ?x1428 A_4) 0.0) (<= (+ ?x746 A_1 ?x2236 B ?x1399 ?x4292 ?x4293) 0.0) (<= (+ A_0 ?x737 ?x6994 ?x6995 B ?x6992 ?x6993) 0.0))))
 (let (($x10857 (<= (+ (* 3.0 S_4) A_0 ?x737 ?x6994 (* 4.0 B) ?x6992) 0.0)))
 (let (($x4654 (<= (+ (* (- 3.0) L_1) (* 3.0 A_1) B ?x4651 L_3 ?x4652 ?x767) 0.0)))
 (let (($x1814 (<= (+ (* 3.0 A_2) (* (- 3.0) L_2) ?x1427 L_0 ?x1335 ?x979 ?x1428) 0.0)))
 (let (($x11421 (<= (+ ?x4652 ?x4651 L_3 (* (- 3.0) L_1) ?x1431 (* 3.0 A_1) ?x767) 0.0)))
 (let (($x121036 (or $x654 $x11421 (<= (+ A_2 (* (- 2.0) L_2) ?x979 L_0 L_3 A_1 ?x767) 0.0))))
 (let (($x13917 (<= (+ A_2 ?x755 ?x979 L_0 S_1 L_3 B ?x767) 0.0)))
 (let (($x10715 (<= (+ ?x4652 ?x4651 (* 3.0 S_1) L_3 B ?x767) 0.0)))
 (let (($x4656 (<= (+ ?x746 A_1 ?x777 (* 2.0 L_2) ?x764 (* (- 2.0) A_2) A_3) 0.0)))
 (let (($x656 (= ?x764 ?x746)))
 (let (($x11427 (<= (+ A_0 ?x737 ?x1407 (* 3.0 L_2) ?x1431 (* (- 3.0) A_2) ?x1403) 0.0)))
 (let ((?x749 (* (- 1.0) A_1)))
 (let ((?x1432 (* (- 2.0) L_2)))
 (let ((?x1433 (* 2.0 A_2)))
 (let (($x1816 (<= (+ ?x1433 ?x1432 L_1 ?x749 L_3 B ?x767) 0.0)))
 (let (($x1743 (not $x1816)))
 (let (($x46461 (<= (+ A_0 ?x737 L_3 B ?x767) (- 15.0))))
 (let (($x38702 (<= (+ A_2 ?x755 L_3 B ?x767) (- 5.0))))
 (let (($x45123 (<= (+ ?x746 A_1 B L_3 ?x767) (- 10.0))))
 (let (($x1425 (<= (+ A_0 ?x737 ?x777 ?x1422 ?x755 ?x1423 A_2) 0.0)))
 (let (($x906 (not $x1425)))
 (let (($x11425 (<= (+ ?x4667 ?x4668 ?x764 (* 3.0 L_1) ?x777 (* (- 3.0) A_1) A_3) 0.0)))
 (let (($x1712 (<= (+ ?x746 A_1 (* (- 1.0) S_2)) 0.0)))
 (let (($x33960 (or $x1712 (<= (+ L_3 ?x767 S_4 A_0 ?x737 (* (- 1.0) S_2)) 0.0))))
 (let (($x121953 (or $x606 $x1390 (<= (+ ?x758 L_2 A_0 ?x737 L_1 ?x764 ?x749 A_3) 0.0))))
 (let (($x123943 (or $x606 $x1390 (<= (+ ?x758 L_2 S_3 A_0 ?x737 B L_1 ?x749) 0.0))))
 (let (($x12816 (<= (+ A_2 ?x755 (* (- 1.0) S_4) ?x979 L_0 ?x777 ?x746 A_1) 0.0)))
 (let ((?x11713 (* (/ 2.0 3.0) L_0)))
 (let ((?x11712 (* (- (/ 2.0 3.0)) A_0)))
 (let ((?x11704 (* (- (/ 1.0 3.0)) S_4)))
 (let (($x1382 (<= (+ S_2 B L_2 ?x758) 0.0)))
 (let (($x121181 (or $x656 $x1382 (<= (+ L_1 ?x749 (* 2.0 S_2) B L_3 ?x767) 0.0))))
 (let (($x32949 (or $x1712 (<= (+ ?x758 L_2 S_4 ?x4667 (* (- 2.0) S_2) ?x4668) 0.0))))
 (let (($x670 (= ?x755 ?x746)))
 (let (($x122757 (or $x670 $x1425 (<= (+ L_3 ?x767 S_4 ?x746 A_1 L_2 B ?x758) 0.0))))
 (let (($x10236 (<= (+ ?x979 L_0 (* 3.0 S_2) ?x1427 ?x1335 ?x1428) 0.0)))
 (let (($x38578 (not $x654)))
 (let (($x123252 (or $x698 (<= (+ ?x979 L_0 ?x803 ?x777 L_4 ?x1432 ?x1433) 0.0) (<= (+ ?x1407 ?x1403 ?x979 L_0 ?x4246 B ?x1576 ?x755 A_2) 0.0) $x38578)))
 (let (($x14782 (<= (+ ?x979 L_0 ?x6939 ?x777 ?x6975 (* (- 4.0) L_3) (* 4.0 A_3)) 0.0)))
 (let (($x122036 (or (not (<= (+ ?x979 L_0 ?x6939 ?x777 ?x735 (* 4.0 A_3)) 0.0)) $x14782)))
 (let (($x11711 (<= (+ (* (- (/ 2.0 3.0)) S_4) (* (- (/ 1.0 3.0)) A_0) (* (/ 1.0 3.0) L_0) S_2) 0.0)))
 (let (($x26551 (or $x1736 (<= (+ ?x746 A_1 (* (- 2.0) S_3) ?x777 ?x764 A_3) 0.0) (<= (+ ?x15162 ?x15147 (* (- (/ 3.0 2.0)) S_3) ?x764 ?x777 A_3) 0.0))))
 (let (($x19760 (<= (+ ?x1427 ?x1428 A_0 (* (- 1.0) S_3) ?x737 ?x2236 ?x1431 ?x1399) 0.0)))
 (let (($x2459 (<= (+ L_3 ?x767 ?x746 A_1 (* (- 1.0) S_3) ?x735 ?x777 A_4) 0.0)))
 (let (($x14969 (<= (+ S_4 (* 3.0 A_0) (* (- 3.0) L_0) (* (- 4.0) S_2)) 0.0)))
 (let (($x27706 (or $x1736 (<= (+ S_4 A_0 ?x737 (* (- 2.0) S_3)) 0.0) (<= (+ ?x1415 ?x1400 S_4 (* (- 3.0) S_3)) 0.0))))
 (let ((?x2306 (* (- 4.0) A_1)))
 (let ((?x2308 (* 4.0 L_1)))
 (let ((?x2291 (* 4.0 B)))
 (let ((?x3118 (* (- 3.0) L_0)))
 (let ((?x3117 (* 3.0 A_0)))
 (let (($x122597 (or $x644 (<= (+ ?x764 A_3 ?x979 L_0 ?x803 ?x777 L_4 ?x746 A_1) 0.0))))
 (let (($x23877 (or $x1736 (<= (+ (* (- (/ 1.0 2.0)) A_0) (* (/ 1.0 2.0) L_0) ?x15149 S_1) 0.0))))
 (let (($x1368 (<= (+ S_4 A_0 ?x737 ?x1335 (* 2.0 L_2) (* (- 2.0) A_2)) 0.0)))
 (let (($x120154 (or $x654 $x1816 (<= (+ ?x746 A_1 (* 2.0 S_4) ?x1373 ?x4292 ?x4293) 0.0) $x9052)))
 (let (($x11419 (<= (+ ?x979 L_0 ?x1427 (* (- 3.0) L_2) ?x777 (* 3.0 A_2) ?x1428) 0.0)))
 (let (($x54363 (or $x670 $x906 (<= (+ ?x1427 ?x1428 A_0 ?x737 ?x2236 ?x777 ?x1399 L_2 ?x758) 0.0))))
 (let (($x17585 (<= (+ ?x1427 ?x1428 (* 2.0 S_4) A_0 ?x737 B L_2 ?x758) 0.0)))
 (let (($x55901 (or $x2071 (<= (+ ?x11704 ?x11712 ?x11713 S_1) 0.0) (<= (+ A_2 ?x755 (* (- 1.0) S_4) ?x979 L_0 S_1) 0.0))))
 (let (($x47405 (or (<= (+ (* (- (/ 1.0 2.0)) L_1) (* (/ 1.0 2.0) A_1) (* (- (/ 1.0 2.0)) S_4)) (- 5.0)) $x2071 (<= (+ A_2 ?x755 (* (- 1.0) S_4)) (- 5.0)) (<= (+ ?x11704 (* (/ 1.0 3.0) A_0) (* (- (/ 1.0 3.0)) L_0)) (- 5.0)))))
 (let (($x17290 (<= (+ L_3 ?x767 A_0 (* (- 1.0) S_2) ?x737 A_4 ?x777 ?x735) 0.0)))
 (let (($x55732 (or $x606 $x1390 (<= (+ L_3 ?x767 A_0 ?x737 A_4 ?x735 L_1 ?x749) 0.0))))
 (let (($x16054 (or $x1736 (<= (+ ?x1415 ?x1400 (* (- 3.0) S_3) A_4 ?x777 ?x735) 0.0) (<= (+ A_0 ?x737 (* (- 2.0) S_3) A_4 ?x777 ?x735) 0.0))))
 (let (($x11197 (<= (+ ?x4667 ?x4668 S_3 ?x1373 (* 3.0 L_1) (* (- 3.0) A_1)) 0.0)))
 (let ((?x11596 (* (- (/ 1.0 3.0)) L_0)))
 (let ((?x11696 (* (/ 1.0 3.0) A_0)))
 (let ((?x11721 (* (- (/ 4.0 3.0)) S_4)))
 (let (($x15877 (or $x2071 (<= (+ ?x746 A_1 (* (- 3.0) S_4) ?x2236 ?x1431 ?x1399) 0.0) (<= (+ A_2 ?x755 (* (- 2.0) S_4) A_4 ?x777 ?x735) 0.0) (<= (+ ?x11721 ?x11696 ?x11596 ?x735 ?x777 A_4) 0.0))))
 (let ((?x1375 (* (- 3.0) A_2)))
 (let ((?x1374 (* 3.0 L_2)))
 (let ((?x1372 (* 2.0 S_3)))
 (let (($x46944 (or $x1736 (<= (+ ?x746 A_1 (* (- 1.0) S_3)) (- 5.0)) (<= (+ ?x15162 ?x15147 ?x15149) (- 5.0)))))
 (let (($x1406 (<= (+ A_0 ?x737 A_4 B ?x735 (* 2.0 L_2) (* (- 2.0) A_2)) 0.0)))
 (let (($x14700 (or $x1712 (<= (+ ?x3117 ?x3118 (* (- 4.0) S_2) A_4 ?x777 ?x735) 0.0))))
 (let (($x12896 (<= (+ ?x758 L_2 A_0 (* (- 1.0) S_2) ?x737 ?x764 ?x777 A_3) 0.0)))
 (let (($x13527 (or $x1712 (<= (+ ?x758 L_2 S_3 A_0 (* (- 1.0) S_2) ?x737) 0.0))))
 (let (($x120834 (or $x606 $x1390 (<= (+ ?x758 L_2 ?x4667 ?x4668 A_4 B ?x735 ?x1422 ?x1423) 0.0))))
 (let (($x13282 (<= (+ ?x758 L_2 ?x4667 (* (- 2.0) S_2) ?x4668 A_4 ?x777 ?x735) 0.0)))
 (let (($x9083 (<= (+ ?x764 A_3 ?x4667 ?x4668 ?x1335 (* 3.0 L_1) (* (- 3.0) A_1)) 0.0)))
 (let (($x11612 (or $x1712 (<= (+ ?x4667 ?x4668 (* (- 3.0) S_2) ?x764 ?x777 A_3) 0.0))))
 (let (($x123923 (or $x1736 (<= (+ ?x979 (* (- 1.0) S_3) L_0 ?x1431 ?x1415 ?x1400) 0.0))))
 (let (($x120730 (or (not (<= (+ L_1 ?x749 ?x777 ?x764 ?x1433 ?x767) 0.0)) (<= (+ L_1 ?x749 ?x777 ?x1432 L_3 ?x1433 ?x767) 0.0))))
 (let (($x4281 (<= (+ ?x1422 ?x1423 ?x803 ?x1431 L_4 (* (- 3.0) L_2) (* 3.0 A_2)) 0.0)))
 (let (($x122729 (or $x698 $x4281 (<= (+ ?x1407 A_3 L_1 ?x749 ?x803 L_4 A_2) 0.0) $x38578)))
 (let (($x120163 (or $x698 $x1729 (<= (+ L_1 ?x749 (* 3.0 S_3) ?x4246 ?x1335 ?x1576) 0.0))))
 (let (($x4277 (<= (+ L_1 ?x749 ?x4246 ?x777 ?x1576 (* (- 3.0) L_3) (* 3.0 A_3)) 0.0)))
 (let (($x2664 (<= (+ ?x746 A_1 S_3 (* 2.0 L_2) ?x1335 (* (- 2.0) A_2)) 0.0)))
 (let (($x55558 (or $x644 (<= (+ ?x764 A_3 L_1 ?x749 ?x755 L_4 ?x777 A_2 ?x803) 0.0))))
 (let ((?x2390 (* (- (/ 1.0 2.0)) S_4)))
 (let ((?x1911 (* (- (/ 1.0 2.0)) A_1)))
 (let ((?x2705 (* (/ 1.0 2.0) L_1)))
 (let (($x2102 (<= (+ ?x764 A_3 ?x746 A_1 (* 2.0 L_2) B (* (- 2.0) A_2)) 0.0)))
 (let ((?x1328 (* 3.0 A_2)))
 (let ((?x1295 (* (- 3.0) L_2)))
 (let ((?x1359 (* (- 2.0) S_4)))
 (let (($x2686 (or (<= (+ A_0 ?x737 (* (- 2.0) S_2) ?x777 ?x755 A_2) 0.0) $x1712)))
 (let (($x57350 (or $x670 $x1425 (<= (+ L_3 ?x767 ?x746 A_1 L_2 ?x735 ?x758 A_4) 0.0))))
 (let (($x57527 (or (not (<= (+ ?x979 L_0 ?x777 ?x755 ?x1400 ?x758) 0.0)) (<= (+ ?x979 L_0 ?x777 ?x1415 L_2 ?x1400 ?x758) 0.0))))
 (let (($x41 (>= A_1 A_0)))
 (let (($x42 (>= A_2 A_1)))
 (let (($x43 (>= A_3 A_2)))
 (let (($x44 (>= A_4 A_3)))
 (and (<= ?x746 ?x737) $x44 $x43 $x42 $x41 (<= ?x735 ?x764) (<= ?x755 ?x746) (or $x670 $x1382) $x57527 (or (<= (+ ?x746 A_1 L_2 B ?x758) (- 5.0)) $x670 $x1425) $x57350 $x2686 (or $x670 (<= (+ ?x979 L_0 ?x777 ?x755 ?x1400 ?x758) 0.0)) (or $x670 $x906 (<= (+ A_0 ?x737 B ?x1374 ?x1407 ?x1375 ?x1403) 0.0)) (<= ?x764 ?x755) (or (<= (+ ?x1359 ?x979 L_0 ?x1358 ?x1295 ?x1328) 0.0) $x2071) (or (<= (+ A_0 ?x737 B L_2 ?x758) (- 10.0)) $x670 $x906) (or $x670 $x1425 $x2102) (or $x644 (<= (+ S_4 ?x803 B L_4) 0.0)) (or $x654 $x1729) (or $x2071 (<= (+ ?x2705 ?x1911 ?x2390 ?x755 ?x777 A_2) 0.0)) $x55558 (or $x670 $x1425 (<= (+ A_4 ?x735 ?x1415 ?x1400 ?x1374 ?x1335 ?x1375) 0.0)) (or $x670 $x1425 (<= (+ ?x1415 ?x1400 S_4 ?x1373 ?x1374 ?x1375) 0.0)) (or $x670 $x1425 $x2664) (or $x654 (<= (+ L_1 ?x749 ?x777 ?x764 ?x1433 ?x767) 0.0)) (or $x644 $x4277) (or $x698 $x1729 (<= (+ ?x758 L_2 ?x1372 ?x803 B L_4) 0.0)) $x120163 $x122729 $x120730 (or $x656 $x1425 $x1743 $x38702) (or $x606 $x1390 (<= (+ S_1 B L_1 ?x749) 0.0)) $x123923 $x11612 (or $x606 $x1390 $x9083) (or $x656 $x4656 $x10236) (or $x1712 $x13282) $x120834 (or $x1712 (<= (+ A_0 (* (- 1.0) S_2) ?x737) (- 5.0))) $x13527 (or $x1712 $x12896) (or $x606 $x1390 (<= (+ A_0 ?x737 B L_1 ?x749) (- 5.0))) $x14700 (or $x1712 (<= (+ ?x4667 ?x4668 S_3 (* (- 3.0) S_2)) 0.0)) (or $x670 $x906 $x1406) $x46944 (or $x670 $x906 (<= (+ A_0 ?x737 ?x1372 ?x1373 ?x1374 ?x1375) 0.0)) $x15877 (or $x606 $x1390 (<= (+ ?x3117 ?x3118 A_4 ?x1373 ?x735 ?x2308 ?x2306) 0.0)) (or $x606 $x1390 $x11197) $x16054 $x55732 (or $x1712 $x17290) $x47405 $x55901 (or $x670 (<= (+ ?x979 L_0 ?x1386 B L_2 ?x758) 0.0)) (or $x670 $x906 $x17585) $x54363 (or $x654 $x11419) (or $x644 (<= (+ ?x758 L_2 ?x803 ?x777 L_4 ?x1407 ?x1403) 0.0)) $x120154 (or $x670 $x906 $x1368) $x23877 $x122597 (or $x606 $x1390 (<= (+ S_4 ?x3117 ?x3118 ?x2291 ?x2308 ?x2306) 0.0)) $x27706 (or $x1712 $x14969) (or $x1736 $x2459 $x19760) $x26551 (or $x2071 $x11711) $x122036 (or $x644 $x14782) $x123252 (or $x606 $x1390 (<= (+ A_0 ?x737 B ?x1422 ?x755 ?x1423 A_2) 0.0)) (or $x656 $x1382 $x10236) $x122757 $x32949 $x121181 (or $x2071 (<= (+ ?x11704 ?x11712 ?x11713 ?x746 ?x777 A_1) 0.0) $x12816) $x123943 $x121953 $x33960 (or $x654 $x1814 $x10715) (or $x654 $x1814 $x4654 $x46461) (or $x654 $x1816 $x11425 $x45123) (or $x656 $x906 $x1814 (not $x4654) $x45123) (or $x656 $x1743 $x38702 $x46461) (or $x656 (<= (+ A_2 ?x755 S_4 ?x1427 ?x1335 ?x1428) 0.0) $x1743 $x10857) (or $x656 $x11427 $x13917) (or $x656 $x4656 $x10715 $x13917) $x121036 (or $x654 $x1814 $x4654 $x10857) $x124058 (or $x606 $x1390 $x9052) (or $x606 $x1390 (<= (+ A_0 ?x737 S_2 ?x1335 ?x1422 ?x1423) 0.0)) (or $x644 $x7257 $x14726) $x124135 $x126466 $x124218 (or $x698 $x6931 $x13109 $x14788) (or $x698 $x9091 $x13284 $x17341 (not $x656)) $x58715 $x56557 $x125159 (or $x644 $x6983 (not $x9091) $x14788) $x122337 (or $x2071 $x2428) (or $x1736 $x2497 (<= (+ L_3 ?x767 S_4 ?x15162 ?x15149 ?x15147) 0.0)) $x958 $x1371 (<= (+ L_1 ?x749 S_1) 0.0) (<= (+ ?x758 L_2 S_2) 0.0) (<= (+ L_3 ?x767 S_3) 0.0) (<= (+ S_0 L_0 ?x979) 0.0) (<= (+ S_4 ?x803 L_4) 0.0) $x1385 $x1765 (<= (+ (* (- 1.0) S_1) S_0) 0.0) (<= (+ (* (- 1.0) S_4) S_3) 0.0) (<= (+ (* (- 1.0) S_3) S_2) 0.0) $x9038 (<= (+ (* (- 1.0) S_2) S_1) 0.0)))))))))))))))))))))))))))))))))))))))))))))))))))))))))))))))))))))))))))))))))))))))))))))))))))))))))))))))))))))))))))))))))))))))))))))))))))))))))))))))))))))))))))))))))))))
(check-sat)
